RT is False
Default write of storage_offers_DA.csv just to have a file (but constraint should be inactive)
Reading model...
...model read.
creating competitive generators file...
...competitive generators recorded.
Loading data...
.. day-ahead data read.
Compiling instance...
...instance created.
Creating Offer Mitigation (model will solve as dispatch if TRUE)...
NOTE: storage offers will not be mitigated
...storage offer mitigation file created
Converting model to MPEC...
...converted
NOTE: initial MIP solve with only storage competitive to get feasible solution
Solving...

Welcome to IBM(R) ILOG(R) CPLEX(R) Interactive Optimizer 12.9.0.0
  with Simplex, Mixed Integer & Barrier Optimizers
5725-A06 5725-A29 5724-Y48 5724-Y49 5724-Y54 5724-Y55 5655-Y21
Copyright IBM Corp. 1988, 2019.  All Rights Reserved.

Type 'help' for a list of available commands.
Type 'help' followed by a command name for more
information on commands.

CPLEX> Logfile 'cplex.log' closed.
Logfile 'C:\Users\Luke\Desktop\test919\logs\tmpmw2bocp3.cplex.log' open.
CPLEX> New value for parallel optimization mode: -1
CPLEX> New value for mixed integer optimality gap tolerance: 0.01
CPLEX> New value for integrality tolerance: 1e-09
CPLEX> New value for feasibility tolerance: 0.01
CPLEX> New value for deterministic time limit in ticks: 75000
CPLEX> Problem 'C:\Users\Luke\Desktop\test919\logs\tmpfop1l3i7.pyomo.lp' read.
Read time = 0.19 sec. (14.73 ticks)
CPLEX> Problem name         : C:\Users\Luke\Desktop\test919\logs\tmpfop1l3i7.pyomo.lp
Objective sense      : Maximize
Variables            :   53805  [Nneg: 1,  Box: 22000,  Free: 4464,
                                 Binary: 27340]
Objective nonzeros   :    9009
Linear constraints   :  123205  [Less: 41346,  Greater: 59096,  Equal: 22763]
  Nonzeros           :  291830
  RHS nonzeros       :   67520

Variables            : Min LB: -5000.000        Max UB: 1000000.       
Objective nonzeros   : Min   : 0.1000000        Max   : 738.1000       
Linear constraints   :
  Nonzeros           : Min   : 0.1000000        Max   : 1000000.       
  RHS nonzeros       : Min   : 0.1000000        Max   : 1000000.       
CPLEX> CPXPARAM_Parallel                                -1
CPXPARAM_Simplex_Tolerances_Feasibility          0.01
CPXPARAM_DetTimeLimit                            75000
CPXPARAM_MIP_Tolerances_MIPGap                   0.01
CPXPARAM_MIP_Tolerances_Integrality              1.0000000000000001e-09
Tried aggregator 3 times.
MIP Presolve eliminated 88456 rows and 18782 columns.
MIP Presolve added 3435 rows and 0 columns.
MIP Presolve modified 24939 coefficients.
Aggregator did 13021 substitutions.
Reduced MIP has 25163 rows, 21472 columns, and 71715 nonzeros.
Reduced MIP has 8482 binaries, 0 generals, 0 SOSs, and 0 indicators.
Presolve time = 0.23 sec. (173.98 ticks)
Probing fixed 382 vars, tightened 2805 bounds.
Probing time = 1.42 sec. (876.93 ticks)
Tried aggregator 2 times.
MIP Presolve eliminated 864 rows and 764 columns.
MIP Presolve modified 2221 coefficients.
Aggregator did 38 substitutions.
Reduced MIP has 24261 rows, 20670 columns, and 69109 nonzeros.
Reduced MIP has 8100 binaries, 0 generals, 0 SOSs, and 0 indicators.
Presolve time = 0.09 sec. (72.67 ticks)
Probing time = 0.03 sec. (16.32 ticks)
Clique table members: 6498.
MIP emphasis: balance optimality and feasibility.
MIP search method: dynamic search.
Parallel mode: opportunistic, using up to 24 threads.
Root relaxation solution time = 0.47 sec. (568.05 ticks)

        Nodes                                         Cuts/
   Node  Left     Objective  IInf  Best Integer    Best Bound    ItCnt     Gap

      0     0     8044.9096   721                   8044.9096     6916         
      0     0     8044.9096    10                    Cuts: 11     6921         
      0     0     8044.9096    10                     Cuts: 7     6922         
      0     0     8044.9096     4                 Impl Bds: 1     6922         
      0     4    infeasible                         8039.4737     7649         
Elapsed time = 7.94 sec. (5166.76 ticks, tree = 0.02 MB, solutions = 0)
*   333    29      integral     0     7434.7523     8039.4737    10870    8.13%
    730    51     7591.3582     7     7434.7523     8039.4737    11874    8.13%
   1153   103     8039.1911     1     7434.7523     8039.4737    14547    8.13%
*  1423   489      integral     0     8030.4374     8039.4737    18695    0.11%
*  1665   410      integral     0     8035.7993     8039.4737    18326    0.05%

Cover cuts applied:  5
Implied bound cuts applied:  9
Flow cuts applied:  5
Gomory fractional cuts applied:  5

Root node processing (before b&c):
  Real time             =    7.61 sec. (5161.45 ticks)
Parallel b&c, 24 threads:
  Real time             =    3.23 sec. (1128.64 ticks)
  Sync time (average)   =    0.59 sec.
  Wait time (average)   =    0.00 sec.
                          ------------
Total (root+branch&cut) =   10.84 sec. (6290.09 ticks)

Solution pool: 5 solutions saved.

MIP - Integer optimal, tolerance (0.01/1e-06):  Objective =  8.0357993104e+03
Current MIP best bound =  8.0394737399e+03 (gap = 3.67443, 0.05%)
Solution time =   10.86 sec.  Iterations = 21272  Nodes = 1712 (33)
Deterministic time = 6290.25 ticks  (579.21 ticks/sec)

CPLEX> Incumbent solution written to file 'C:\Users\Luke\Desktop\test919\logs\tmpw2be59ky.cplex.sol'.
CPLEX> NOTE: no warmstart specified for MIP iteration, default behavior is true
NOTE: resolving with all competitive generators using storage-only solution to warmstart
Solving...

Welcome to IBM(R) ILOG(R) CPLEX(R) Interactive Optimizer 12.9.0.0
  with Simplex, Mixed Integer & Barrier Optimizers
5725-A06 5725-A29 5724-Y48 5724-Y49 5724-Y54 5724-Y55 5655-Y21
Copyright IBM Corp. 1988, 2019.  All Rights Reserved.

Type 'help' for a list of available commands.
Type 'help' followed by a command name for more
information on commands.

CPLEX> Logfile 'cplex.log' closed.
Logfile 'C:\Users\Luke\Desktop\test919\logs\tmpk_eyf5pv.cplex.log' open.
CPLEX> New value for parallel optimization mode: -1
CPLEX> New value for mixed integer optimality gap tolerance: 0.01
CPLEX> New value for integrality tolerance: 1e-09
CPLEX> New value for feasibility tolerance: 0.01
CPLEX> New value for deterministic time limit in ticks: 75000
CPLEX> Problem 'C:\Users\Luke\Desktop\test919\logs\tmpiib7ftyo.pyomo.lp' read.
Read time = 0.19 sec. (14.75 ticks)
CPLEX> MIP start file 'C:\Users\Luke\Desktop\test919\logs\tmpzi7ubig_.cplex.mst' read.
CPLEX> Problem name         : C:\Users\Luke\Desktop\test919\logs\tmpiib7ftyo.pyomo.lp
Objective sense      : Maximize
Variables            :   54525  [Nneg: 1,  Box: 22720,  Free: 4464,
                                 Binary: 27340]
Objective nonzeros   :    9729
Linear constraints   :  123205  [Less: 41346,  Greater: 59096,  Equal: 22763]
  Nonzeros           :  291830
  RHS nonzeros       :   67520

Variables            : Min LB: -5000.000        Max UB: 1000000.       
Objective nonzeros   : Min   : 0.1000000        Max   : 738.1000       
Linear constraints   :
  Nonzeros           : Min   : 0.1000000        Max   : 1000000.       
  RHS nonzeros       : Min   : 0.1000000        Max   : 1000000.       
CPLEX> CPXPARAM_Parallel                                -1
CPXPARAM_Simplex_Tolerances_Feasibility          0.01
CPXPARAM_DetTimeLimit                            75000
CPXPARAM_MIP_Tolerances_MIPGap                   0.01
CPXPARAM_MIP_Tolerances_Integrality              1.0000000000000001e-09
Warning:  No solution found from 1 MIP starts.
Retaining values of one MIP start for possible repair.
Tried aggregator 3 times.
MIP Presolve eliminated 88456 rows and 19502 columns.
MIP Presolve added 3435 rows and 0 columns.
MIP Presolve modified 24939 coefficients.
Aggregator did 13021 substitutions.
Reduced MIP has 25163 rows, 21472 columns, and 71715 nonzeros.
Reduced MIP has 8482 binaries, 0 generals, 0 SOSs, and 0 indicators.
Presolve time = 0.23 sec. (174.34 ticks)
Probing fixed 382 vars, tightened 2805 bounds.
Probing time = 1.45 sec. (876.93 ticks)
Tried aggregator 2 times.
MIP Presolve eliminated 864 rows and 764 columns.
MIP Presolve modified 2221 coefficients.
Aggregator did 38 substitutions.
Reduced MIP has 24261 rows, 20670 columns, and 69109 nonzeros.
Reduced MIP has 8100 binaries, 0 generals, 0 SOSs, and 0 indicators.
Presolve time = 0.08 sec. (72.67 ticks)
Probing time = 0.02 sec. (16.32 ticks)
Clique table members: 6498.
MIP emphasis: balance optimality and feasibility.
MIP search method: dynamic search.
Parallel mode: opportunistic, using up to 24 threads.
Root relaxation solution time = 0.47 sec. (568.05 ticks)

        Nodes                                         Cuts/
   Node  Left     Objective  IInf  Best Integer    Best Bound    ItCnt     Gap

      0     0     8044.9096   721                   8044.9096     6916         
      0     0     8044.9096    10                    Cuts: 11     6921         
      0     0     8044.9096    10                     Cuts: 7     6922         
      0     0     8044.9096     4                 Impl Bds: 1     6922         
Repair heuristic found nothing.
      0     5    infeasible                         8039.4737     7464         
Elapsed time = 8.13 sec. (5206.03 ticks, tree = 0.02 MB, solutions = 0)
    444    28   -22177.1001     2                   8039.4737    11789         
*   491    31      integral     0   -15227.4202     8039.4737    12345  152.80%
*   518    24      integral     0     7952.6242     8039.4737    12506    1.09%
    841    35     8035.7993     5     7952.6242     8039.4737    16642    1.09%
*   909+   43                         8035.7993     8039.4737             0.05%
   1140    53     7993.0618     1     8035.7993     8039.4737    17612    0.05%
*  1157    67      integral     0     8035.7993     8039.4737    17769    0.05%

Cover cuts applied:  3
Implied bound cuts applied:  7
Flow cuts applied:  4
Gomory fractional cuts applied:  5

Root node processing (before b&c):
  Real time             =    7.80 sec. (5199.92 ticks)
Parallel b&c, 24 threads:
  Real time             =    2.63 sec. (966.07 ticks)
  Sync time (average)   =    0.69 sec.
  Wait time (average)   =    0.00 sec.
                          ------------
Total (root+branch&cut) =   10.42 sec. (6166.00 ticks)

Solution pool: 5 solutions saved.

MIP - Integer optimal, tolerance (0.01/1e-06):  Objective =  8.0357993104e+03
Current MIP best bound =  8.0394737399e+03 (gap = 3.67443, 0.05%)
Solution time =   10.44 sec.  Iterations = 19392  Nodes = 1204 (62)
Deterministic time = 6166.15 ticks  (590.74 ticks/sec)

CPLEX> Incumbent solution written to file 'C:\Users\Luke\Desktop\test919\logs\tmp6e9cfufw.cplex.sol'.
CPLEX> Exporting results... 
